30	13000	3000	1200
3354	852	674
3829	840	710
3524	559	639
2681	599	789
3199	701	758
3151	622	732
3177	555	624
2003	659	672
3435	665	723
4324	529	771
2579	860	716
2923	700	661
4520	611	712
3163	622	558
4578	709	699
3390	672	653
2109	642	793
4393	595	645
3414	584	541
4352	628	744
3961	866	564
2385	810	779
2591	663	654
3642	575	622
4372	757	634
3926	825	567
2772	647	685
4723	548	706
2721	546	721
2401	661	780
